solving instance uflp nlass gunluk ../../../../../instances/uflp/gunluk/gunluk-50-100-10.txt exp
Set parameter TokenServer to value "licences.gerad.lan"
Set parameter MIPGap to value 1e-06
Set parameter FuncPieceError to value 1e-06
Set parameter Threads to value 1
Set parameter FuncPieces to value -2
Set parameter TimeLimit to value 3600
Gurobi Optimizer version 12.0.2 build v12.0.2rc0 (linux64 - "AlmaLinux 9.6 (Sage Margay)")

CPU model: Intel(R) Xeon(R) Gold 6258R CPU @ 2.70GHz, instruction set [SSE2|AVX|AVX2|AVX512]
Thread count: 56 physical cores, 56 logical processors, using up to 1 threads

Non-default parameters:
TimeLimit  3600
MIPGap  1e-06
Threads  1
FuncPieces  -2
FuncPieceError  1e-06

Optimize a model with 25100 rows, 35050 columns and 60000 nonzeros
Model fingerprint: 0xefcfb612
Model has 10000 function constraints treated as nonlinear
  5000 EXP, 5000 POW
Variable types: 30000 continuous, 5050 integer (5050 binary)
Coefficient statistics:
  Matrix range     [5e-01, 9e+01]
  Objective range  [1e+00, 1e+02]
  Bounds range     [1e+00, 1e+10]
  RHS range        [4e-01, 4e+01]
Warning: Model contains large bounds
         Consider reformulating model or setting NumericFocus parameter
         to avoid numerical issues.
Warning: 0 <= x < 1e-10 in domain of pow(x,a) with a=-1.000.
         Setting lower bound to 1e-10.
Presolve removed 10000 rows and 10000 columns
Presolve time: 0.21s
Presolved: 60100 rows, 25051 columns, 125000 nonzeros
Presolved model has 5000 bilinear constraint(s)
Presolved model has 5000 nonlinear constraint(s)

Solving non-convex MINLP

Variable types: 20001 continuous, 5050 integer (5050 binary)
Found heuristic solution: objective 5442.1226393
Root relaxation presolved: 45100 rows, 15050 columns, 95000 nonzeros


Root relaxation: objective 1.182488e+03, 1287 iterations, 0.25 seconds (0.25 work units)

    Nodes    |    Current Node    |     Objective Bounds      |     Work
 Expl Unexpl |  Obj  Depth IntInf | Incumbent    BestBd   Gap | It/Node Time

     0     0 1182.48824    0  635 5442.12264 1182.48824  78.3%     -    0s
H    0     0                    1553.2882540 1182.48824  23.9%     -    0s
H    0     0                    1547.1338406 1182.48824  23.6%     -    0s
H    0     0                    1507.0045979 1182.48824  21.5%     -    0s
H    0     0                    1501.8190792 1182.48824  21.3%     -    0s
H    0     0                    1460.7766343 1182.48824  19.1%     -    0s
H    0     0                    1456.7574053 1182.48824  18.8%     -    1s
H    0     0                    1453.4399186 1182.48824  18.6%     -    1s
H    0     0                    1448.4893365 1182.48824  18.4%     -    1s
     0     0 1327.40191    0  517 1448.48934 1327.40191  8.36%     -    1s
H    0     0                    1443.9140251 1327.95450  8.03%     -    1s
     0     0 1327.95450    0  519 1443.91403 1327.95450  8.03%     -    1s
     0     0 1361.04521    0  519 1443.91403 1361.04521  5.74%     -    1s
     0     0 1362.23407    0  520 1443.91403 1362.23407  5.66%     -    2s
     0     0 1399.84345    0  330 1443.91403 1399.84345  3.05%     -    2s
     0     0 1400.02158    0  332 1443.91403 1400.02158  3.04%     -    2s
     0     0 1417.61679    0  445 1443.91403 1417.61679  1.82%     -    3s
     0     0 1417.88617    0  449 1443.91403 1417.88617  1.80%     -    3s
     0     0 1433.88193    0  225 1443.91403 1433.88193  0.69%     -    3s
     0     0 1433.88193    0  225 1443.91403 1433.88193  0.69%     -    3s
     0     0 1434.06112    0  230 1443.91403 1434.06112  0.68%     -    3s
     0     0 1436.77182    0  430 1443.91403 1436.77182  0.49%     -    4s
     0     0 1436.77182    0  615 1443.91403 1436.77182  0.49%     -    4s
     0     0 1436.77182    0  491 1443.91403 1436.77182  0.49%     -    4s
     0     0 1436.77182    0  224 1443.91403 1436.77182  0.49%     -    4s
     0     0 1436.77182    0  382 1443.91403 1436.77182  0.49%     -    4s
     0     0 1436.77182    0  421 1443.91403 1436.77182  0.49%     -    4s
     0     0 1436.77182    0  421 1443.91403 1436.77182  0.49%     -    4s
     0     0 1438.38139    0  355 1443.91403 1438.38139  0.38%     -    4s
     0     0 1438.38139    0  597 1443.91403 1438.38139  0.38%     -    5s
     0     0 1438.38139    0  484 1443.91403 1438.38139  0.38%     -    5s
     0     0 1438.38139    0  208 1443.91403 1438.38139  0.38%     -    5s
     0     0 1438.38139    0  329 1443.91403 1438.38139  0.38%     -    5s
     0     0 1438.38139    0  348 1443.91403 1438.38139  0.38%     -    5s
     0     0 1438.38139    0  348 1443.91403 1438.38139  0.38%     -    5s
     0     0 1439.70393    0  409 1443.91403 1439.70393  0.29%     -    5s
     0     0 1439.87054    0  368 1443.91403 1439.87054  0.28%     -    5s
     0     0 1442.59696    0  322 1443.91403 1442.59696  0.09%     -    5s
     0     0 1442.59696    0  322 1443.91403 1442.59696  0.09%     -    5s
     0     0 1442.66502    0  419 1443.91403 1442.66502  0.09%     -    5s
     0     0 1442.91466    0  190 1443.91403 1442.91466  0.07%     -    5s
     0     0 1442.91466    0  546 1443.91403 1442.91466  0.07%     -    5s
     0     0 1442.91466    0  281 1443.91403 1442.91466  0.07%     -    5s
     0     0 1442.91466    0  373 1443.91403 1442.91466  0.07%     -    5s
     0     0 1442.91466    0  165 1443.91403 1442.91466  0.07%     -    5s
     0     0 1442.91466    0  205 1443.91403 1442.91466  0.07%     -    5s
     0     0 1443.71683    0  117 1443.91403 1443.71683  0.01%     -    5s
     0     0 1443.75509    0  124 1443.91403 1443.75509  0.01%     -    5s
     0     0     cutoff    0      1443.91403 1443.91403  0.00%     -    5s

Cutting planes:
  Gomory: 31
  Cover: 4
  Implied bound: 10
  MIR: 6
  Flow cover: 328
  Zero half: 4
  RLT: 167
  Relax-and-lift: 181

Explored 1 nodes (25812 simplex iterations) in 5.91 seconds (2.97 work units)
Thread count was 1 (of 56 available processors)

Solution count 10: 1443.91 1448.49 1453.44 ... 5442.12

Optimal solution found (tolerance 1.00e-06)
Best objective 1.443914025081e+03, best bound 1.443914025081e+03, gap 0.0000%

User-callback calls 1680, time in user-callback 0.00 sec
Generating Gunluk and Lee data file ../../../../../instances/uflp/gunluk/gunluk-50-100-10.txt
primal_bound = 1443.9140250814075, dual_bound = 1443.9140250812052, gap = 1.4014862909380452e-11, time = 5.92
